; 
(set-info :status unknown)
(declare-fun __node_125 () Bool)
(declare-fun __node_144 () Bool)
(declare-fun __nodeactive_125 () Bool)
(declare-fun __nodeactive_144 () Bool)
(declare-fun __noderelax_125 () Bool)
(declare-fun __noderelax_144 () Bool)
(declare-fun __node_126 () Bool)
(declare-fun __edge_161 () Bool)
(declare-fun __nodedistance_126 () (_ BitVec 4))
(declare-fun __nodedistance_125 () (_ BitVec 4))
(declare-fun __node_127 () Bool)
(declare-fun __edge_162 () Bool)
(declare-fun __nodedistance_127 () (_ BitVec 4))
(declare-fun __node_128 () Bool)
(declare-fun __edge_163 () Bool)
(declare-fun __nodedistance_128 () (_ BitVec 4))
(declare-fun __node_129 () Bool)
(declare-fun __edge_164 () Bool)
(declare-fun __nodedistance_129 () (_ BitVec 4))
(declare-fun __node_130 () Bool)
(declare-fun __edge_165 () Bool)
(declare-fun __nodedistance_130 () (_ BitVec 4))
(declare-fun __node_131 () Bool)
(declare-fun __edge_166 () Bool)
(declare-fun __nodedistance_131 () (_ BitVec 4))
(declare-fun __node_132 () Bool)
(declare-fun __edge_167 () Bool)
(declare-fun __nodedistance_132 () (_ BitVec 4))
(declare-fun __node_133 () Bool)
(declare-fun __edge_168 () Bool)
(declare-fun __nodedistance_133 () (_ BitVec 4))
(declare-fun __node_134 () Bool)
(declare-fun __edge_169 () Bool)
(declare-fun __nodedistance_134 () (_ BitVec 4))
(declare-fun __node_135 () Bool)
(declare-fun __edge_170 () Bool)
(declare-fun __nodedistance_135 () (_ BitVec 4))
(declare-fun __node_136 () Bool)
(declare-fun __edge_171 () Bool)
(declare-fun __nodedistance_136 () (_ BitVec 4))
(declare-fun __edge_172 () Bool)
(declare-fun __node_137 () Bool)
(declare-fun __edge_173 () Bool)
(declare-fun __nodedistance_137 () (_ BitVec 4))
(declare-fun __node_138 () Bool)
(declare-fun __edge_174 () Bool)
(declare-fun __nodedistance_138 () (_ BitVec 4))
(declare-fun __node_139 () Bool)
(declare-fun __edge_175 () Bool)
(declare-fun __nodedistance_139 () (_ BitVec 4))
(declare-fun __node_140 () Bool)
(declare-fun __edge_176 () Bool)
(declare-fun __nodedistance_140 () (_ BitVec 4))
(declare-fun __node_141 () Bool)
(declare-fun __edge_177 () Bool)
(declare-fun __nodedistance_141 () (_ BitVec 4))
(declare-fun __node_142 () Bool)
(declare-fun __edge_178 () Bool)
(declare-fun __nodedistance_142 () (_ BitVec 4))
(declare-fun __node_143 () Bool)
(declare-fun __edge_179 () Bool)
(declare-fun __nodedistance_143 () (_ BitVec 4))
(declare-fun __edge_180 () Bool)
(declare-fun __nodedistance_144 () (_ BitVec 4))
(declare-fun __edge_181 () Bool)
(declare-fun __edge_182 () Bool)
(declare-fun __pathbound () (_ BitVec 4))
(declare-fun __nodebound () (_ BitVec 5))
(declare-fun __edgebound () (_ BitVec 5))
(declare-fun __noderelax_126 () Bool)
(declare-fun __nodeactive_126 () Bool)
(declare-fun __noderelax_127 () Bool)
(declare-fun __nodeactive_127 () Bool)
(declare-fun __noderelax_128 () Bool)
(declare-fun __nodeactive_128 () Bool)
(declare-fun __noderelax_129 () Bool)
(declare-fun __nodeactive_129 () Bool)
(declare-fun __noderelax_130 () Bool)
(declare-fun __nodeactive_130 () Bool)
(declare-fun __noderelax_131 () Bool)
(declare-fun __nodeactive_131 () Bool)
(declare-fun __noderelax_132 () Bool)
(declare-fun __nodeactive_132 () Bool)
(declare-fun __noderelax_133 () Bool)
(declare-fun __nodeactive_133 () Bool)
(declare-fun __noderelax_135 () Bool)
(declare-fun __nodeactive_135 () Bool)
(declare-fun __noderelax_136 () Bool)
(declare-fun __nodeactive_136 () Bool)
(declare-fun __noderelax_137 () Bool)
(declare-fun __nodeactive_137 () Bool)
(declare-fun __noderelax_138 () Bool)
(declare-fun __nodeactive_138 () Bool)
(declare-fun __noderelax_139 () Bool)
(declare-fun __nodeactive_139 () Bool)
(declare-fun __noderelax_140 () Bool)
(declare-fun __nodeactive_140 () Bool)
(declare-fun __noderelax_141 () Bool)
(declare-fun __nodeactive_141 () Bool)
(declare-fun __noderelax_142 () Bool)
(declare-fun __nodeactive_142 () Bool)
(declare-fun __noderelax_143 () Bool)
(declare-fun __nodeactive_143 () Bool)
(declare-fun __nodestatusrelaxbound () (_ BitVec 6))
(declare-fun __edgepathflag_182 () Bool)
(declare-fun __edgepathflag_181 () Bool)
(declare-fun __edgepathflag_180 () Bool)
(declare-fun __edgepathflag_179 () Bool)
(declare-fun __edgepathflag_178 () Bool)
(declare-fun __edgepathflag_176 () Bool)
(declare-fun __edgepathflag_175 () Bool)
(declare-fun __edgepathflag_174 () Bool)
(declare-fun __edgepathflag_173 () Bool)
(declare-fun __edgepathflag_172 () Bool)
(declare-fun __edgepathflag_171 () Bool)
(declare-fun __edgepathflag_170 () Bool)
(declare-fun __edgepathflag_169 () Bool)
(declare-fun __edgepathflag_168 () Bool)
(declare-fun __edgepathflag_167 () Bool)
(declare-fun __edgepathflag_166 () Bool)
(declare-fun __edgepathflag_165 () Bool)
(declare-fun __edgepathflag_164 () Bool)
(declare-fun __edgepathflag_163 () Bool)
(declare-fun __edgepathflag_162 () Bool)
(declare-fun __edgepathflag_161 () Bool)
(declare-fun __edgepathflag_177 () Bool)
(declare-fun __edgerelax_161 () Bool)
(declare-fun __edgerelax_162 () Bool)
(declare-fun __edgerelax_163 () Bool)
(declare-fun __edgerelax_164 () Bool)
(declare-fun __edgerelax_165 () Bool)
(declare-fun __edgerelax_166 () Bool)
(declare-fun __edgerelax_167 () Bool)
(declare-fun __edgerelax_168 () Bool)
(declare-fun __edgerelax_169 () Bool)
(declare-fun __nodeactive_134 () Bool)
(declare-fun __edgerelax_170 () Bool)
(declare-fun __edgerelax_171 () Bool)
(declare-fun __edgerelax_172 () Bool)
(declare-fun __edgerelax_173 () Bool)
(declare-fun __edgerelax_174 () Bool)
(declare-fun __edgerelax_175 () Bool)
(declare-fun __edgerelax_176 () Bool)
(declare-fun __edgerelax_177 () Bool)
(declare-fun __edgerelax_178 () Bool)
(declare-fun __edgerelax_179 () Bool)
(declare-fun __edgerelax_180 () Bool)
(declare-fun __edgerelax_181 () Bool)
(declare-fun __edgerelax_182 () Bool)
(declare-fun __edgestatusrelaxbound () (_ BitVec 5))
(assert
 __node_125)
(assert
 __node_144)
(assert
 __nodeactive_125)
(assert
 __nodeactive_144)
(assert
 (not __noderelax_125))
(assert
 (not __noderelax_144))
(assert
 (=> __edge_161 (and __node_125 __node_126)))
(assert
 (=> __edge_161 (bvult __nodedistance_125 __nodedistance_126)))
(assert
 (=> __edge_162 (and __node_125 __node_127)))
(assert
 (=> __edge_162 (bvult __nodedistance_125 __nodedistance_127)))
(assert
 (=> __edge_163 (and __node_125 __node_128)))
(assert
 (=> __edge_163 (bvult __nodedistance_125 __nodedistance_128)))
(assert
 (let (($x178 (and __node_126 __node_129)))
 (=> __edge_164 $x178)))
(assert
 (=> __edge_164 (bvult __nodedistance_126 __nodedistance_129)))
(assert
 (let (($x182 (and __node_127 __node_130)))
 (=> __edge_165 $x182)))
(assert
 (=> __edge_165 (bvult __nodedistance_127 __nodedistance_130)))
(assert
 (let (($x186 (and __node_128 __node_131)))
 (=> __edge_166 $x186)))
(assert
 (=> __edge_166 (bvult __nodedistance_128 __nodedistance_131)))
(assert
 (let (($x190 (and __node_129 __node_132)))
 (=> __edge_167 $x190)))
(assert
 (=> __edge_167 (bvult __nodedistance_129 __nodedistance_132)))
(assert
 (let (($x194 (and __node_130 __node_133)))
 (=> __edge_168 $x194)))
(assert
 (=> __edge_168 (bvult __nodedistance_130 __nodedistance_133)))
(assert
 (let (($x198 (and __node_131 __node_134)))
 (=> __edge_169 $x198)))
(assert
 (=> __edge_169 (bvult __nodedistance_131 __nodedistance_134)))
(assert
 (let (($x202 (and __node_132 __node_135)))
 (=> __edge_170 $x202)))
(assert
 (=> __edge_170 (bvult __nodedistance_132 __nodedistance_135)))
(assert
 (let (($x206 (and __node_132 __node_136)))
 (=> __edge_171 $x206)))
(assert
 (=> __edge_171 (bvult __nodedistance_132 __nodedistance_136)))
(assert
 (let (($x210 (and __node_133 __node_136)))
 (=> __edge_172 $x210)))
(assert
 (=> __edge_172 (bvult __nodedistance_133 __nodedistance_136)))
(assert
 (let (($x214 (and __node_135 __node_137)))
 (=> __edge_173 $x214)))
(assert
 (=> __edge_173 (bvult __nodedistance_135 __nodedistance_137)))
(assert
 (let (($x218 (and __node_136 __node_138)))
 (=> __edge_174 $x218)))
(assert
 (=> __edge_174 (bvult __nodedistance_136 __nodedistance_138)))
(assert
 (let (($x222 (and __node_137 __node_139)))
 (=> __edge_175 $x222)))
(assert
 (=> __edge_175 (bvult __nodedistance_137 __nodedistance_139)))
(assert
 (let (($x226 (and __node_138 __node_140)))
 (=> __edge_176 $x226)))
(assert
 (=> __edge_176 (bvult __nodedistance_138 __nodedistance_140)))
(assert
 (let (($x230 (and __node_134 __node_141)))
 (=> __edge_177 $x230)))
(assert
 (=> __edge_177 (bvult __nodedistance_134 __nodedistance_141)))
(assert
 (let (($x234 (and __node_139 __node_142)))
 (=> __edge_178 $x234)))
(assert
 (=> __edge_178 (bvult __nodedistance_139 __nodedistance_142)))
(assert
 (let (($x238 (and __node_140 __node_143)))
 (=> __edge_179 $x238)))
(assert
 (=> __edge_179 (bvult __nodedistance_140 __nodedistance_143)))
(assert
 (=> __edge_180 (and __node_141 __node_144)))
(assert
 (=> __edge_180 (bvult __nodedistance_141 __nodedistance_144)))
(assert
 (let (($x246 (and __node_142 __node_143)))
 (=> __edge_181 $x246)))
(assert
 (=> __edge_181 (bvult __nodedistance_142 __nodedistance_143)))
(assert
 (=> __edge_182 (and __node_143 __node_144)))
(assert
 (=> __edge_182 (bvult __nodedistance_143 __nodedistance_144)))
(assert
 (bvule __nodedistance_144 __pathbound))
(assert
 (bvule __pathbound (_ bv10 4)))
(assert
 (=> __node_125 (or (or (or false __edge_161) __edge_162) __edge_163)))
(assert
 (=> __node_144 (or (or false __edge_180) __edge_182)))
(assert
 (=> __node_126 (and (or false __edge_161) (or false __edge_164))))
(assert
 (=> __node_127 (and (or false __edge_162) (or false __edge_165))))
(assert
 (=> __node_128 (and (or false __edge_163) (or false __edge_166))))
(assert
 (=> __node_129 (and (or false __edge_164) (or false __edge_167))))
(assert
 (=> __node_130 (and (or false __edge_165) (or false __edge_168))))
(assert
 (=> __node_131 (and (or false __edge_166) (or false __edge_169))))
(assert
 (let (($x275 (or false __edge_167)))
 (=> __node_132 (and $x275 (or (or false __edge_170) __edge_171)))))
(assert
 (=> __node_133 (and (or false __edge_168) (or false __edge_172))))
(assert
 (=> __node_134 (and (or false __edge_169) (or false __edge_177))))
(assert
 (=> __node_135 (and (or false __edge_170) (or false __edge_173))))
(assert
 (let (($x299 (or false __edge_174)))
 (=> __node_136 (and (or (or false __edge_171) __edge_172) $x299))))
(assert
 (=> __node_137 (and (or false __edge_173) (or false __edge_175))))
(assert
 (=> __node_138 (and (or false __edge_174) (or false __edge_176))))
(assert
 (=> __node_139 (and (or false __edge_175) (or false __edge_178))))
(assert
 (=> __node_140 (and (or false __edge_176) (or false __edge_179))))
(assert
 (=> __node_141 (and (or false __edge_177) (or false __edge_180))))
(assert
 (=> __node_142 (and (or false __edge_178) (or false __edge_181))))
(assert
 (let (($x321 (and (or (or false __edge_179) __edge_181) (or false __edge_182))))
 (=> __node_143 $x321)))
(assert
 (bvule __nodebound (_ bv20 5)))
(assert
 (let ((?x363 (ite __node_143 (_ bv1 5) (_ bv0 5))))
 (let ((?x361 (ite __node_142 (_ bv1 5) (_ bv0 5))))
 (let ((?x359 (ite __node_141 (_ bv1 5) (_ bv0 5))))
 (let ((?x357 (ite __node_140 (_ bv1 5) (_ bv0 5))))
 (let ((?x355 (ite __node_139 (_ bv1 5) (_ bv0 5))))
 (let ((?x353 (ite __node_138 (_ bv1 5) (_ bv0 5))))
 (let ((?x351 (ite __node_137 (_ bv1 5) (_ bv0 5))))
 (let ((?x349 (ite __node_136 (_ bv1 5) (_ bv0 5))))
 (let ((?x347 (ite __node_135 (_ bv1 5) (_ bv0 5))))
 (let ((?x345 (ite __node_134 (_ bv1 5) (_ bv0 5))))
 (let ((?x343 (ite __node_133 (_ bv1 5) (_ bv0 5))))
 (let ((?x341 (ite __node_132 (_ bv1 5) (_ bv0 5))))
 (let ((?x339 (ite __node_131 (_ bv1 5) (_ bv0 5))))
 (let ((?x337 (ite __node_130 (_ bv1 5) (_ bv0 5))))
 (let ((?x335 (ite __node_129 (_ bv1 5) (_ bv0 5))))
 (let ((?x333 (ite __node_128 (_ bv1 5) (_ bv0 5))))
 (let ((?x331 (ite __node_127 (_ bv1 5) (_ bv0 5))))
 (let ((?x329 (ite __node_126 (_ bv1 5) (_ bv0 5))))
 (let ((?x328 (bvadd (_ bv0 5) (ite __node_125 (_ bv1 5) (_ bv0 5)))))
 (let ((?x330 (bvadd ?x328 ?x329)))
 (let ((?x332 (bvadd ?x330 ?x331)))
 (let ((?x334 (bvadd ?x332 ?x333)))
 (let ((?x336 (bvadd ?x334 ?x335)))
 (let ((?x338 (bvadd ?x336 ?x337)))
 (let ((?x340 (bvadd ?x338 ?x339)))
 (let ((?x342 (bvadd ?x340 ?x341)))
 (let ((?x344 (bvadd ?x342 ?x343)))
 (let ((?x346 (bvadd ?x344 ?x345)))
 (let ((?x348 (bvadd ?x346 ?x347)))
 (let ((?x350 (bvadd ?x348 ?x349)))
 (let ((?x352 (bvadd ?x350 ?x351)))
 (let ((?x354 (bvadd ?x352 ?x353)))
 (let ((?x356 (bvadd ?x354 ?x355)))
 (let ((?x358 (bvadd ?x356 ?x357)))
 (let ((?x360 (bvadd ?x358 ?x359)))
 (let ((?x362 (bvadd ?x360 ?x361)))
 (let ((?x364 (bvadd ?x362 ?x363)))
 (bvule (bvadd ?x364 (ite __node_144 (_ bv1 5) (_ bv0 5))) __nodebound)))))))))))))))))))))))))))))))))))))))
(assert
 (bvule __edgebound (_ bv22 5)))
(assert
 (let ((?x412 (ite __edge_182 (_ bv1 5) (_ bv0 5))))
 (let ((?x410 (ite __edge_181 (_ bv1 5) (_ bv0 5))))
 (let ((?x408 (ite __edge_180 (_ bv1 5) (_ bv0 5))))
 (let ((?x406 (ite __edge_179 (_ bv1 5) (_ bv0 5))))
 (let ((?x404 (ite __edge_178 (_ bv1 5) (_ bv0 5))))
 (let ((?x402 (ite __edge_177 (_ bv1 5) (_ bv0 5))))
 (let ((?x400 (ite __edge_176 (_ bv1 5) (_ bv0 5))))
 (let ((?x398 (ite __edge_175 (_ bv1 5) (_ bv0 5))))
 (let ((?x396 (ite __edge_174 (_ bv1 5) (_ bv0 5))))
 (let ((?x394 (ite __edge_173 (_ bv1 5) (_ bv0 5))))
 (let ((?x392 (ite __edge_172 (_ bv1 5) (_ bv0 5))))
 (let ((?x390 (ite __edge_171 (_ bv1 5) (_ bv0 5))))
 (let ((?x388 (ite __edge_170 (_ bv1 5) (_ bv0 5))))
 (let ((?x386 (ite __edge_169 (_ bv1 5) (_ bv0 5))))
 (let ((?x384 (ite __edge_168 (_ bv1 5) (_ bv0 5))))
 (let ((?x382 (ite __edge_167 (_ bv1 5) (_ bv0 5))))
 (let ((?x380 (ite __edge_166 (_ bv1 5) (_ bv0 5))))
 (let ((?x378 (ite __edge_165 (_ bv1 5) (_ bv0 5))))
 (let ((?x376 (ite __edge_164 (_ bv1 5) (_ bv0 5))))
 (let ((?x374 (ite __edge_163 (_ bv1 5) (_ bv0 5))))
 (let ((?x372 (ite __edge_162 (_ bv1 5) (_ bv0 5))))
 (let ((?x370 (ite __edge_161 (_ bv1 5) (_ bv0 5))))
 (let ((?x371 (bvadd (_ bv0 5) ?x370)))
 (let ((?x373 (bvadd ?x371 ?x372)))
 (let ((?x375 (bvadd ?x373 ?x374)))
 (let ((?x377 (bvadd ?x375 ?x376)))
 (let ((?x379 (bvadd ?x377 ?x378)))
 (let ((?x381 (bvadd ?x379 ?x380)))
 (let ((?x383 (bvadd ?x381 ?x382)))
 (let ((?x385 (bvadd ?x383 ?x384)))
 (let ((?x387 (bvadd ?x385 ?x386)))
 (let ((?x389 (bvadd ?x387 ?x388)))
 (let ((?x391 (bvadd ?x389 ?x390)))
 (let ((?x393 (bvadd ?x391 ?x392)))
 (let ((?x395 (bvadd ?x393 ?x394)))
 (let ((?x397 (bvadd ?x395 ?x396)))
 (let ((?x399 (bvadd ?x397 ?x398)))
 (let ((?x401 (bvadd ?x399 ?x400)))
 (let ((?x403 (bvadd ?x401 ?x402)))
 (let ((?x405 (bvadd ?x403 ?x404)))
 (let ((?x407 (bvadd ?x405 ?x406)))
 (let ((?x409 (bvadd ?x407 ?x408)))
 (let ((?x411 (bvadd ?x409 ?x410)))
 (bvule (bvadd ?x411 ?x412) __edgebound)))))))))))))))))))))))))))))))))))))))))))))
(assert
 (let (($x417 (and __node_126 __nodeactive_126)))
 (let (($x418 (not $x417)))
 (= $x418 __noderelax_126))))
(assert
 (let (($x422 (and __node_127 __nodeactive_127)))
 (let (($x423 (not $x422)))
 (= $x423 __noderelax_127))))
(assert
 (let (($x427 (and __node_128 __nodeactive_128)))
 (let (($x428 (not $x427)))
 (= $x428 __noderelax_128))))
(assert
 (let (($x432 (and __node_129 __nodeactive_129)))
 (let (($x433 (not $x432)))
 (= $x433 __noderelax_129))))
(assert
 (let (($x437 (and __node_130 __nodeactive_130)))
 (let (($x438 (not $x437)))
 (= $x438 __noderelax_130))))
(assert
 (let (($x442 (and __node_131 __nodeactive_131)))
 (= $x442 __noderelax_131)))
(assert
 (let (($x446 (and __node_132 __nodeactive_132)))
 (= $x446 __noderelax_132)))
(assert
 (let (($x450 (and __node_133 __nodeactive_133)))
 (let (($x451 (not $x450)))
 (= $x451 __noderelax_133))))
(assert
 (let (($x455 (and __node_135 __nodeactive_135)))
 (let (($x456 (not $x455)))
 (= $x456 __noderelax_135))))
(assert
 (let (($x460 (and __node_136 __nodeactive_136)))
 (let (($x461 (not $x460)))
 (= $x461 __noderelax_136))))
(assert
 (let (($x465 (and __node_137 __nodeactive_137)))
 (= $x465 __noderelax_137)))
(assert
 (let (($x469 (and __node_138 __nodeactive_138)))
 (= $x469 __noderelax_138)))
(assert
 (let (($x473 (and __node_139 __nodeactive_139)))
 (let (($x474 (not $x473)))
 (= $x474 __noderelax_139))))
(assert
 (let (($x478 (and __node_140 __nodeactive_140)))
 (= $x478 __noderelax_140)))
(assert
 (let (($x482 (and __node_141 __nodeactive_141)))
 (= $x482 __noderelax_141)))
(assert
 (let (($x486 (and __node_142 __nodeactive_142)))
 (= $x486 __noderelax_142)))
(assert
 (let (($x490 (and __node_143 __nodeactive_143)))
 (= $x490 __noderelax_143)))
(assert
 (let (($x490 (and __node_143 __nodeactive_143)))
 (let ((?x491 (ite $x490 (_ bv1 6) (_ bv0 6))))
 (let (($x486 (and __node_142 __nodeactive_142)))
 (let ((?x487 (ite $x486 (_ bv1 6) (_ bv0 6))))
 (let (($x482 (and __node_141 __nodeactive_141)))
 (let ((?x483 (ite $x482 (_ bv1 6) (_ bv0 6))))
 (let (($x478 (and __node_140 __nodeactive_140)))
 (let ((?x479 (ite $x478 (_ bv1 6) (_ bv0 6))))
 (let (($x469 (and __node_138 __nodeactive_138)))
 (let ((?x470 (ite $x469 (_ bv1 6) (_ bv0 6))))
 (let (($x465 (and __node_137 __nodeactive_137)))
 (let ((?x466 (ite $x465 (_ bv1 6) (_ bv0 6))))
 (let (($x446 (and __node_132 __nodeactive_132)))
 (let ((?x447 (ite $x446 (_ bv1 6) (_ bv0 6))))
 (let (($x442 (and __node_131 __nodeactive_131)))
 (let ((?x443 (ite $x442 (_ bv1 6) (_ bv0 6))))
 (let ((?x421 (bvadd (_ bv0 6) (ite (not (and __node_126 __nodeactive_126)) (_ bv1 6) (_ bv0 6)))))
 (let ((?x426 (bvadd ?x421 (ite (not (and __node_127 __nodeactive_127)) (_ bv1 6) (_ bv0 6)))))
 (let ((?x431 (bvadd ?x426 (ite (not (and __node_128 __nodeactive_128)) (_ bv1 6) (_ bv0 6)))))
 (let ((?x436 (bvadd ?x431 (ite (not (and __node_129 __nodeactive_129)) (_ bv1 6) (_ bv0 6)))))
 (let ((?x441 (bvadd ?x436 (ite (not (and __node_130 __nodeactive_130)) (_ bv1 6) (_ bv0 6)))))
 (let ((?x445 (bvadd ?x441 ?x443)))
 (let ((?x449 (bvadd ?x445 ?x447)))
 (let ((?x454 (bvadd ?x449 (ite (not (and __node_133 __nodeactive_133)) (_ bv1 6) (_ bv0 6)))))
 (let ((?x459 (bvadd ?x454 (ite (not (and __node_135 __nodeactive_135)) (_ bv1 6) (_ bv0 6)))))
 (let ((?x464 (bvadd ?x459 (ite (not (and __node_136 __nodeactive_136)) (_ bv1 6) (_ bv0 6)))))
 (let ((?x468 (bvadd ?x464 ?x466)))
 (let ((?x472 (bvadd ?x468 ?x470)))
 (let ((?x477 (bvadd ?x472 (ite (not (and __node_139 __nodeactive_139)) (_ bv1 6) (_ bv0 6)))))
 (let ((?x481 (bvadd ?x477 ?x479)))
 (let ((?x485 (bvadd ?x481 ?x483)))
 (let ((?x489 (bvadd ?x485 ?x487)))
 (bvule (bvadd ?x489 ?x491) __nodestatusrelaxbound))))))))))))))))))))))))))))))))))
(assert
 (let (($x510 (and true __edgepathflag_161)))
 (let (($x511 (and $x510 __edgepathflag_162)))
 (let (($x513 (and true (and $x511 __edgepathflag_163))))
 (let (($x515 (and $x513 (and true __edgepathflag_164))))
 (let (($x517 (and $x515 (and true __edgepathflag_165))))
 (let (($x519 (and $x517 (and true __edgepathflag_166))))
 (let (($x521 (and $x519 (and true __edgepathflag_167))))
 (let (($x523 (and $x521 (and true __edgepathflag_168))))
 (let (($x525 (and $x523 (and true __edgepathflag_169))))
 (let (($x528 (and $x525 (and (and true __edgepathflag_170) __edgepathflag_171))))
 (let (($x530 (and $x528 (and true __edgepathflag_172))))
 (let (($x532 (and $x530 (and true __edgepathflag_173))))
 (let (($x534 (and $x532 (and true __edgepathflag_174))))
 (let (($x536 (and $x534 (and true __edgepathflag_175))))
 (let (($x538 (and $x536 (and true __edgepathflag_176))))
 (let (($x540 (and $x538 (and true __edgepathflag_178))))
 (let (($x542 (and $x540 (and true __edgepathflag_179))))
 (let (($x544 (and $x542 (and true __edgepathflag_180))))
 (let (($x546 (and $x544 (and true __edgepathflag_181))))
 (let (($x506 (=> (or false (and __edge_169 (not __edgepathflag_169))) (and true (not __edgepathflag_177)))))
 (let (($x496 (and true (=> __edge_180 __edgepathflag_180))))
 (let (($x500 (and true (and true (and $x496 (=> __edge_182 __edgepathflag_182))))))
 (let (($x508 (and $x500 (and true $x506))))
 (let (($x509 (and $x508 true)))
 (and $x509 (and $x546 (and true __edgepathflag_182))))))))))))))))))))))))))))
(assert
 (let (($x551 (not __nodeactive_126)))
 (let (($x552 (and __node_126 $x551)))
 (let (($x556 (and __node_125 (not __nodeactive_125))))
 (let (($x554 (or false (and (and __node_125 __nodeactive_125) $x552))))
 (let (($x558 (or $x554 (and $x556 (and __node_126 __nodeactive_126)))))
 (let (($x560 (or $x558 (and $x556 $x552))))
 (= $x560 __edgerelax_161))))))))
(assert
 (let (($x564 (not __nodeactive_127)))
 (let (($x565 (and __node_127 $x564)))
 (let (($x556 (and __node_125 (not __nodeactive_125))))
 (let (($x567 (or false (and (and __node_125 __nodeactive_125) $x565))))
 (let (($x569 (or $x567 (and $x556 (and __node_127 __nodeactive_127)))))
 (let (($x571 (or $x569 (and $x556 $x565))))
 (= $x571 __edgerelax_162))))))))
(assert
 (let (($x575 (not __nodeactive_128)))
 (let (($x576 (and __node_128 $x575)))
 (let (($x556 (and __node_125 (not __nodeactive_125))))
 (let (($x578 (or false (and (and __node_125 __nodeactive_125) $x576))))
 (let (($x580 (or $x578 (and $x556 (and __node_128 __nodeactive_128)))))
 (let (($x582 (or $x580 (and $x556 $x576))))
 (= $x582 __edgerelax_163))))))))
(assert
 (let (($x588 (not __nodeactive_129)))
 (let (($x589 (and __node_129 $x588)))
 (let (($x551 (not __nodeactive_126)))
 (let (($x552 (and __node_126 $x551)))
 (let (($x432 (and __node_129 __nodeactive_129)))
 (let (($x417 (and __node_126 __nodeactive_126)))
 (let (($x587 (or false (and $x417 $x432))))
 (let (($x591 (or $x587 (and $x552 $x589))))
 (= $x591 __edgerelax_164))))))))))
(assert
 (let (($x595 (not __nodeactive_130)))
 (let (($x596 (and __node_130 $x595)))
 (let (($x564 (not __nodeactive_127)))
 (let (($x565 (and __node_127 $x564)))
 (let (($x598 (or false (and (and __node_127 __nodeactive_127) $x596))))
 (let (($x600 (or $x598 (and $x565 (and __node_130 __nodeactive_130)))))
 (let (($x602 (or $x600 (and $x565 $x596))))
 (= $x602 __edgerelax_165)))))))))
(assert
 (let (($x608 (not __nodeactive_131)))
 (let (($x609 (and __node_131 $x608)))
 (let (($x575 (not __nodeactive_128)))
 (let (($x576 (and __node_128 $x575)))
 (let (($x442 (and __node_131 __nodeactive_131)))
 (let (($x427 (and __node_128 __nodeactive_128)))
 (let (($x607 (or false (and $x427 $x442))))
 (let (($x611 (or $x607 (and $x576 $x609))))
 (= $x611 __edgerelax_166))))))))))
(assert
 (let (($x615 (not __nodeactive_132)))
 (let (($x616 (and __node_132 $x615)))
 (let (($x588 (not __nodeactive_129)))
 (let (($x589 (and __node_129 $x588)))
 (let (($x618 (or false (and (and __node_129 __nodeactive_129) $x616))))
 (let (($x620 (or $x618 (and $x589 (and __node_132 __nodeactive_132)))))
 (let (($x622 (or $x620 (and $x589 $x616))))
 (= $x622 __edgerelax_167)))))))))
(assert
 (let (($x626 (not __nodeactive_133)))
 (let (($x627 (and __node_133 $x626)))
 (let (($x595 (not __nodeactive_130)))
 (let (($x596 (and __node_130 $x595)))
 (let (($x629 (or false (and (and __node_130 __nodeactive_130) $x627))))
 (let (($x631 (or $x629 (and $x596 (and __node_133 __nodeactive_133)))))
 (let (($x633 (or $x631 (and $x596 $x627))))
 (= $x633 __edgerelax_168)))))))))
(assert
 (let (($x637 (not __nodeactive_134)))
 (let (($x638 (and __node_134 $x637)))
 (let (($x608 (not __nodeactive_131)))
 (let (($x609 (and __node_131 $x608)))
 (let (($x640 (or false (and (and __node_131 __nodeactive_131) $x638))))
 (let (($x643 (or $x640 (and $x609 (and __node_134 __nodeactive_134)))))
 (let (($x645 (or $x643 (and $x609 $x638))))
 (= $x645 __edgerelax_169)))))))))
(assert
 (let (($x651 (not __nodeactive_135)))
 (let (($x652 (and __node_135 $x651)))
 (let (($x615 (not __nodeactive_132)))
 (let (($x616 (and __node_132 $x615)))
 (let (($x455 (and __node_135 __nodeactive_135)))
 (let (($x446 (and __node_132 __nodeactive_132)))
 (let (($x650 (or false (and $x446 $x455))))
 (let (($x654 (or $x650 (and $x616 $x652))))
 (= $x654 __edgerelax_170))))))))))
(assert
 (let (($x658 (not __nodeactive_136)))
 (let (($x659 (and __node_136 $x658)))
 (let (($x615 (not __nodeactive_132)))
 (let (($x616 (and __node_132 $x615)))
 (let (($x661 (or false (and (and __node_132 __nodeactive_132) $x659))))
 (let (($x663 (or $x661 (and $x616 (and __node_136 __nodeactive_136)))))
 (let (($x665 (or $x663 (and $x616 $x659))))
 (= $x665 __edgerelax_171)))))))))
(assert
 (let (($x658 (not __nodeactive_136)))
 (let (($x659 (and __node_136 $x658)))
 (let (($x626 (not __nodeactive_133)))
 (let (($x627 (and __node_133 $x626)))
 (let (($x670 (or false (and (and __node_133 __nodeactive_133) $x659))))
 (let (($x672 (or $x670 (and $x627 (and __node_136 __nodeactive_136)))))
 (let (($x674 (or $x672 (and $x627 $x659))))
 (= $x674 __edgerelax_172)))))))))
(assert
 (let (($x678 (not __nodeactive_137)))
 (let (($x679 (and __node_137 $x678)))
 (let (($x651 (not __nodeactive_135)))
 (let (($x652 (and __node_135 $x651)))
 (let (($x681 (or false (and (and __node_135 __nodeactive_135) $x679))))
 (let (($x683 (or $x681 (and $x652 (and __node_137 __nodeactive_137)))))
 (let (($x685 (or $x683 (and $x652 $x679))))
 (= $x685 __edgerelax_173)))))))))
(assert
 (let (($x689 (not __nodeactive_138)))
 (let (($x690 (and __node_138 $x689)))
 (let (($x658 (not __nodeactive_136)))
 (let (($x659 (and __node_136 $x658)))
 (let (($x692 (or false (and (and __node_136 __nodeactive_136) $x690))))
 (let (($x694 (or $x692 (and $x659 (and __node_138 __nodeactive_138)))))
 (let (($x696 (or $x694 (and $x659 $x690))))
 (= $x696 __edgerelax_174)))))))))
(assert
 (let (($x702 (not __nodeactive_139)))
 (let (($x703 (and __node_139 $x702)))
 (let (($x678 (not __nodeactive_137)))
 (let (($x679 (and __node_137 $x678)))
 (let (($x473 (and __node_139 __nodeactive_139)))
 (let (($x465 (and __node_137 __nodeactive_137)))
 (let (($x701 (or false (and $x465 $x473))))
 (let (($x705 (or $x701 (and $x679 $x703))))
 (= $x705 __edgerelax_175))))))))))
(assert
 (let (($x711 (not __nodeactive_140)))
 (let (($x712 (and __node_140 $x711)))
 (let (($x689 (not __nodeactive_138)))
 (let (($x690 (and __node_138 $x689)))
 (let (($x478 (and __node_140 __nodeactive_140)))
 (let (($x469 (and __node_138 __nodeactive_138)))
 (let (($x710 (or false (and $x469 $x478))))
 (let (($x714 (or $x710 (and $x690 $x712))))
 (= $x714 __edgerelax_176))))))))))
(assert
 (let (($x720 (not __nodeactive_141)))
 (let (($x721 (and __node_141 $x720)))
 (let (($x637 (not __nodeactive_134)))
 (let (($x638 (and __node_134 $x637)))
 (let (($x482 (and __node_141 __nodeactive_141)))
 (let (($x641 (and __node_134 __nodeactive_134)))
 (let (($x719 (or false (and $x641 $x482))))
 (let (($x723 (or $x719 (and $x638 $x721))))
 (= $x723 __edgerelax_177))))))))))
(assert
 (let (($x727 (not __nodeactive_142)))
 (let (($x728 (and __node_142 $x727)))
 (let (($x702 (not __nodeactive_139)))
 (let (($x703 (and __node_139 $x702)))
 (let (($x730 (or false (and (and __node_139 __nodeactive_139) $x728))))
 (let (($x732 (or $x730 (and $x703 (and __node_142 __nodeactive_142)))))
 (let (($x734 (or $x732 (and $x703 $x728))))
 (= $x734 __edgerelax_178)))))))))
(assert
 (let (($x740 (not __nodeactive_143)))
 (let (($x741 (and __node_143 $x740)))
 (let (($x711 (not __nodeactive_140)))
 (let (($x712 (and __node_140 $x711)))
 (let (($x490 (and __node_143 __nodeactive_143)))
 (let (($x478 (and __node_140 __nodeactive_140)))
 (let (($x739 (or false (and $x478 $x490))))
 (let (($x743 (or $x739 (and $x712 $x741))))
 (= $x743 __edgerelax_179))))))))))
(assert
 (let (($x748 (and __node_144 (not __nodeactive_144))))
 (let (($x720 (not __nodeactive_141)))
 (let (($x721 (and __node_141 $x720)))
 (let (($x750 (or false (and (and __node_141 __nodeactive_141) $x748))))
 (let (($x753 (or $x750 (and $x721 (and __node_144 __nodeactive_144)))))
 (let (($x755 (or $x753 (and $x721 $x748))))
 (= $x755 __edgerelax_180))))))))
(assert
 (let (($x740 (not __nodeactive_143)))
 (let (($x741 (and __node_143 $x740)))
 (let (($x727 (not __nodeactive_142)))
 (let (($x728 (and __node_142 $x727)))
 (let (($x760 (or false (and (and __node_142 __nodeactive_142) $x741))))
 (let (($x762 (or $x760 (and $x728 (and __node_143 __nodeactive_143)))))
 (let (($x764 (or $x762 (and $x728 $x741))))
 (= $x764 __edgerelax_181)))))))))
(assert
 (let (($x748 (and __node_144 (not __nodeactive_144))))
 (let (($x740 (not __nodeactive_143)))
 (let (($x741 (and __node_143 $x740)))
 (let (($x769 (or false (and (and __node_143 __nodeactive_143) $x748))))
 (let (($x771 (or $x769 (and $x741 (and __node_144 __nodeactive_144)))))
 (let (($x773 (or $x771 (and $x741 $x748))))
 (= $x773 __edgerelax_182))))))))
(assert
 (let (($x748 (and __node_144 (not __nodeactive_144))))
 (let (($x740 (not __nodeactive_143)))
 (let (($x741 (and __node_143 $x740)))
 (let (($x769 (or false (and (and __node_143 __nodeactive_143) $x748))))
 (let (($x771 (or $x769 (and $x741 (and __node_144 __nodeactive_144)))))
 (let (($x773 (or $x771 (and $x741 $x748))))
 (let (($x490 (and __node_143 __nodeactive_143)))
 (let (($x727 (not __nodeactive_142)))
 (let (($x728 (and __node_142 $x727)))
 (let (($x760 (or false (and (and __node_142 __nodeactive_142) $x741))))
 (let (($x762 (or $x760 (and $x728 $x490))))
 (let (($x764 (or $x762 (and $x728 $x741))))
 (let (($x751 (and __node_144 __nodeactive_144)))
 (let (($x720 (not __nodeactive_141)))
 (let (($x721 (and __node_141 $x720)))
 (let (($x750 (or false (and (and __node_141 __nodeactive_141) $x748))))
 (let (($x753 (or $x750 (and $x721 $x751))))
 (let (($x755 (or $x753 (and $x721 $x748))))
 (let (($x739 (or false (and (and __node_140 __nodeactive_140) $x490))))
 (let (($x743 (or $x739 (and (and __node_140 (not __nodeactive_140)) $x741))))
 (let (($x486 (and __node_142 __nodeactive_142)))
 (let (($x702 (not __nodeactive_139)))
 (let (($x703 (and __node_139 $x702)))
 (let (($x730 (or false (and (and __node_139 __nodeactive_139) $x728))))
 (let (($x732 (or $x730 (and $x703 $x486))))
 (let (($x734 (or $x732 (and $x703 $x728))))
 (let (($x482 (and __node_141 __nodeactive_141)))
 (let (($x641 (and __node_134 __nodeactive_134)))
 (let (($x719 (or false (and $x641 $x482))))
 (let (($x723 (or $x719 (and (and __node_134 (not __nodeactive_134)) $x721))))
 (let (($x711 (not __nodeactive_140)))
 (let (($x712 (and __node_140 $x711)))
 (let (($x689 (not __nodeactive_138)))
 (let (($x690 (and __node_138 $x689)))
 (let (($x478 (and __node_140 __nodeactive_140)))
 (let (($x469 (and __node_138 __nodeactive_138)))
 (let (($x710 (or false (and $x469 $x478))))
 (let (($x714 (or $x710 (and $x690 $x712))))
 (let (($x473 (and __node_139 __nodeactive_139)))
 (let (($x465 (and __node_137 __nodeactive_137)))
 (let (($x701 (or false (and $x465 $x473))))
 (let (($x705 (or $x701 (and (and __node_137 (not __nodeactive_137)) $x703))))
 (let (($x692 (or false (and (and __node_136 __nodeactive_136) $x690))))
 (let (($x694 (or $x692 (and (and __node_136 (not __nodeactive_136)) $x469))))
 (let (($x696 (or $x694 (and (and __node_136 (not __nodeactive_136)) $x690))))
 (let (($x678 (not __nodeactive_137)))
 (let (($x679 (and __node_137 $x678)))
 (let (($x651 (not __nodeactive_135)))
 (let (($x652 (and __node_135 $x651)))
 (let (($x681 (or false (and (and __node_135 __nodeactive_135) $x679))))
 (let (($x683 (or $x681 (and $x652 $x465))))
 (let (($x685 (or $x683 (and $x652 $x679))))
 (let (($x658 (not __nodeactive_136)))
 (let (($x659 (and __node_136 $x658)))
 (let (($x626 (not __nodeactive_133)))
 (let (($x627 (and __node_133 $x626)))
 (let (($x670 (or false (and (and __node_133 __nodeactive_133) $x659))))
 (let (($x672 (or $x670 (and $x627 (and __node_136 __nodeactive_136)))))
 (let (($x674 (or $x672 (and $x627 $x659))))
 (let (($x460 (and __node_136 __nodeactive_136)))
 (let (($x615 (not __nodeactive_132)))
 (let (($x616 (and __node_132 $x615)))
 (let (($x661 (or false (and (and __node_132 __nodeactive_132) $x659))))
 (let (($x663 (or $x661 (and $x616 $x460))))
 (let (($x665 (or $x663 (and $x616 $x659))))
 (let (($x455 (and __node_135 __nodeactive_135)))
 (let (($x446 (and __node_132 __nodeactive_132)))
 (let (($x650 (or false (and $x446 $x455))))
 (let (($x654 (or $x650 (and $x616 $x652))))
 (let (($x637 (not __nodeactive_134)))
 (let (($x638 (and __node_134 $x637)))
 (let (($x608 (not __nodeactive_131)))
 (let (($x609 (and __node_131 $x608)))
 (let (($x640 (or false (and (and __node_131 __nodeactive_131) $x638))))
 (let (($x643 (or $x640 (and $x609 $x641))))
 (let (($x645 (or $x643 (and $x609 $x638))))
 (let (($x450 (and __node_133 __nodeactive_133)))
 (let (($x595 (not __nodeactive_130)))
 (let (($x596 (and __node_130 $x595)))
 (let (($x629 (or false (and (and __node_130 __nodeactive_130) $x627))))
 (let (($x631 (or $x629 (and $x596 $x450))))
 (let (($x633 (or $x631 (and $x596 $x627))))
 (let (($x618 (or false (and (and __node_129 __nodeactive_129) $x616))))
 (let (($x620 (or $x618 (and (and __node_129 (not __nodeactive_129)) $x446))))
 (let (($x622 (or $x620 (and (and __node_129 (not __nodeactive_129)) $x616))))
 (let (($x442 (and __node_131 __nodeactive_131)))
 (let (($x427 (and __node_128 __nodeactive_128)))
 (let (($x607 (or false (and $x427 $x442))))
 (let (($x611 (or $x607 (and (and __node_128 (not __nodeactive_128)) $x609))))
 (let (($x437 (and __node_130 __nodeactive_130)))
 (let (($x564 (not __nodeactive_127)))
 (let (($x565 (and __node_127 $x564)))
 (let (($x598 (or false (and (and __node_127 __nodeactive_127) $x596))))
 (let (($x600 (or $x598 (and $x565 $x437))))
 (let (($x602 (or $x600 (and $x565 $x596))))
 (let (($x588 (not __nodeactive_129)))
 (let (($x589 (and __node_129 $x588)))
 (let (($x551 (not __nodeactive_126)))
 (let (($x552 (and __node_126 $x551)))
 (let (($x432 (and __node_129 __nodeactive_129)))
 (let (($x417 (and __node_126 __nodeactive_126)))
 (let (($x587 (or false (and $x417 $x432))))
 (let (($x591 (or $x587 (and $x552 $x589))))
 (let (($x575 (not __nodeactive_128)))
 (let (($x576 (and __node_128 $x575)))
 (let (($x556 (and __node_125 (not __nodeactive_125))))
 (let (($x578 (or false (and (and __node_125 __nodeactive_125) $x576))))
 (let (($x580 (or $x578 (and $x556 $x427))))
 (let (($x582 (or $x580 (and $x556 $x576))))
 (let (($x567 (or false (and (and __node_125 __nodeactive_125) $x565))))
 (let (($x569 (or $x567 (and $x556 (and __node_127 __nodeactive_127)))))
 (let (($x571 (or $x569 (and $x556 $x565))))
 (let (($x554 (or false (and (and __node_125 __nodeactive_125) $x552))))
 (let (($x558 (or $x554 (and $x556 $x417))))
 (let (($x560 (or $x558 (and $x556 $x552))))
 (let ((?x563 (bvadd (_ bv0 5) (ite $x560 (_ bv1 5) (_ bv0 5)))))
 (let ((?x574 (bvadd ?x563 (ite $x571 (_ bv1 5) (_ bv0 5)))))
 (let ((?x585 (bvadd ?x574 (ite $x582 (_ bv1 5) (_ bv0 5)))))
 (let ((?x594 (bvadd ?x585 (ite $x591 (_ bv1 5) (_ bv0 5)))))
 (let ((?x605 (bvadd ?x594 (ite $x602 (_ bv1 5) (_ bv0 5)))))
 (let ((?x614 (bvadd ?x605 (ite $x611 (_ bv1 5) (_ bv0 5)))))
 (let ((?x625 (bvadd ?x614 (ite $x622 (_ bv1 5) (_ bv0 5)))))
 (let ((?x636 (bvadd ?x625 (ite $x633 (_ bv1 5) (_ bv0 5)))))
 (let ((?x648 (bvadd ?x636 (ite $x645 (_ bv1 5) (_ bv0 5)))))
 (let ((?x657 (bvadd ?x648 (ite $x654 (_ bv1 5) (_ bv0 5)))))
 (let ((?x668 (bvadd ?x657 (ite $x665 (_ bv1 5) (_ bv0 5)))))
 (let ((?x677 (bvadd ?x668 (ite $x674 (_ bv1 5) (_ bv0 5)))))
 (let ((?x688 (bvadd ?x677 (ite $x685 (_ bv1 5) (_ bv0 5)))))
 (let ((?x699 (bvadd ?x688 (ite $x696 (_ bv1 5) (_ bv0 5)))))
 (let ((?x708 (bvadd ?x699 (ite $x705 (_ bv1 5) (_ bv0 5)))))
 (let ((?x717 (bvadd ?x708 (ite $x714 (_ bv1 5) (_ bv0 5)))))
 (let ((?x726 (bvadd ?x717 (ite $x723 (_ bv1 5) (_ bv0 5)))))
 (let ((?x737 (bvadd ?x726 (ite $x734 (_ bv1 5) (_ bv0 5)))))
 (let ((?x746 (bvadd ?x737 (ite $x743 (_ bv1 5) (_ bv0 5)))))
 (let ((?x758 (bvadd ?x746 (ite $x755 (_ bv1 5) (_ bv0 5)))))
 (let ((?x767 (bvadd ?x758 (ite $x764 (_ bv1 5) (_ bv0 5)))))
 (bvule (bvadd ?x767 (ite $x773 (_ bv1 5) (_ bv0 5))) __edgestatusrelaxbound))))))))))))))))))))))))))))))))))))))))))))))))))))))))))))))))))))))))))))))))))))))))))))))))))))))))))))))))))))))))))))))))))))))))))
(assert
 __nodeactive_125)
(assert
 (bvule __nodestatusrelaxbound (_ bv3 6)))
(assert
 (bvule __edgestatusrelaxbound (_ bv3 5)))
(check-sat)

